Using license file /home/benedond/gurobi.lic
Using gurobi.env file
Set parameter Threads to value 1
Academic license - for non-commercial use only
Changed value of parameter TimeLimit to 300.0
   Prev: inf  Min: 0.0  Max: inf  Default: inf
Gurobi Optimizer version 9.0.1 build v9.0.1rc0 (linux64)
Optimize a model with 6625 rows, 6349 columns and 31133 nonzeros
Model fingerprint: 0xe4456a61
Variable types: 110 continuous, 6239 integer (6239 binary)
Coefficient statistics:
  Matrix range     [2e-01, 4e+02]
  Objective range  [6e-03, 2e-01]
  Bounds range     [1e+00, 1e+00]
  RHS range        [1e+00, 3e+03]
Presolve removed 123 rows and 107 columns
Presolve time: 0.11s
Presolved: 6502 rows, 6242 columns, 30708 nonzeros
Variable types: 109 continuous, 6133 integer (6133 binary)

Root relaxation: objective 1.972105e+00, 6242 iterations, 0.49 seconds

    Nodes    |    Current Node    |     Objective Bounds      |     Work
 Expl Unexpl |  Obj  Depth IntInf | Incumbent    BestBd   Gap | It/Node Time

     0     0    1.97211    0  381          -    1.97211      -     -    0s
     0     0    2.07613    0  323          -    2.07613      -     -    1s
     0     0    2.07653    0  318          -    2.07653      -     -    1s
     0     0    2.16028    0  293          -    2.16028      -     -    1s
H    0     0                       4.6018885    2.16028  53.1%     -    1s
H    0     0                       3.8847530    2.16028  44.4%     -    2s
H    0     0                       3.4014064    2.16028  36.5%     -    4s
     0     0    2.16528    0  278    3.40141    2.16528  36.3%     -    4s
     0     0    2.23384    0  275    3.40141    2.23384  34.3%     -    5s
     0     0    2.24861    0  361    3.40141    2.24861  33.9%     -    8s
     0     0    2.26703    0  276    3.40141    2.26703  33.4%     -    8s
     0     0    2.27030    0  312    3.40141    2.27030  33.3%     -    8s
     0     0    2.27124    0  326    3.40141    2.27124  33.2%     -    8s
     0     0    2.27161    0  294    3.40141    2.27161  33.2%     -    8s
     0     0    2.27165    0  316    3.40141    2.27165  33.2%     -    8s
     0     0    2.31177    0  316    3.40141    2.31177  32.0%     -    9s
     0     0    2.31923    0  319    3.40141    2.31923  31.8%     -    9s
     0     0    2.32331    0  350    3.40141    2.32331  31.7%     -    9s
     0     0    2.32501    0  341    3.40141    2.32501  31.6%     -    9s
     0     0    2.32545    0  332    3.40141    2.32545  31.6%     -    9s
     0     0    2.32612    0  322    3.40141    2.32612  31.6%     -    9s
     0     0    2.32619    0  329    3.40141    2.32619  31.6%     -    9s
     0     0    2.33765    0  327    3.40141    2.33765  31.3%     -   10s
     0     0    2.34177    0  353    3.40141    2.34177  31.2%     -   10s
     0     0    2.34309    0  319    3.40141    2.34309  31.1%     -   10s
     0     0    2.34497    0  335    3.40141    2.34497  31.1%     -   10s
     0     0    2.34508    0  337    3.40141    2.34508  31.1%     -   10s
     0     0    2.35423    0  384    3.40141    2.35423  30.8%     -   10s
     0     0    2.35809    0  337    3.40141    2.35809  30.7%     -   10s
     0     0    2.36037    0  375    3.40141    2.36037  30.6%     -   11s
     0     0    2.36153    0  345    3.40141    2.36153  30.6%     -   11s
     0     0    2.36173    0  400    3.40141    2.36173  30.6%     -   11s
     0     0    2.36795    0  334    3.40141    2.36795  30.4%     -   11s
     0     0    2.36953    0  331    3.40141    2.36953  30.3%     -   11s
     0     0    2.36989    0  328    3.40141    2.36989  30.3%     -   11s
     0     0    2.37011    0  332    3.40141    2.37011  30.3%     -   11s
     0     0    2.37478    0  342    3.40141    2.37478  30.2%     -   12s
     0     0    2.37604    0  369    3.40141    2.37604  30.1%     -   12s
     0     0    2.37632    0  350    3.40141    2.37632  30.1%     -   12s
     0     0    2.37660    0  380    3.40141    2.37660  30.1%     -   12s
     0     0    2.38190    0  384    3.40141    2.38190  30.0%     -   12s
     0     0    2.38436    0  388    3.40141    2.38436  29.9%     -   12s
     0     0    2.38458    0  436    3.40141    2.38458  29.9%     -   12s
     0     0    2.38786    0  355    3.40141    2.38786  29.8%     -   13s
     0     0    2.38861    0  360    3.40141    2.38861  29.8%     -   13s
     0     0    2.38908    0  404    3.40141    2.38908  29.8%     -   13s
     0     0    2.38949    0  377    3.40141    2.38949  29.7%     -   13s
     0     0    2.38973    0  395    3.40141    2.38973  29.7%     -   13s
     0     0    2.39349    0  381    3.40141    2.39349  29.6%     -   13s
     0     0    2.39448    0  392    3.40141    2.39448  29.6%     -   13s
     0     0    2.39505    0  392    3.40141    2.39505  29.6%     -   13s
     0     0    2.39523    0  406    3.40141    2.39523  29.6%     -   13s
     0     0    2.39812    0  446    3.40141    2.39812  29.5%     -   14s
     0     0    2.40000    0  414    3.40141    2.40000  29.4%     -   14s
     0     0    2.40037    0  371    3.40141    2.40037  29.4%     -   14s
     0     0    2.40045    0  420    3.40141    2.40045  29.4%     -   14s
     0     0    2.40499    0  395    3.40141    2.40499  29.3%     -   14s
     0     0    2.40731    0  392    3.40141    2.40731  29.2%     -   15s
     0     0    2.40774    0  392    3.40141    2.40774  29.2%     -   15s
     0     0    2.40795    0  423    3.40141    2.40795  29.2%     -   15s
     0     0    2.41291    0  441    3.40141    2.41291  29.1%     -   15s
     0     0    2.41375    0  484    3.40141    2.41375  29.0%     -   15s
     0     0    2.41398    0  443    3.40141    2.41398  29.0%     -   15s
     0     0    2.41663    0  439    3.40141    2.41663  29.0%     -   16s
     0     0    2.41749    0  479    3.40141    2.41749  28.9%     -   16s
     0     0    2.41759    0  453    3.40141    2.41759  28.9%     -   16s
     0     0    2.42279    0  468    3.40141    2.42279  28.8%     -   16s
     0     0    2.42421    0  418    3.40141    2.42421  28.7%     -   16s
     0     0    2.42493    0  473    3.40141    2.42493  28.7%     -   17s
     0     0    2.42512    0  487    3.40141    2.42512  28.7%     -   17s
     0     0    2.42844    0  395    3.40141    2.42844  28.6%     -   17s
     0     0    2.42998    0  520    3.40141    2.42998  28.6%     -   17s
     0     0    2.43099    0  478    3.40141    2.43099  28.5%     -   17s
     0     0    2.43123    0  471    3.40141    2.43123  28.5%     -   18s
     0     0    2.43535    0  375    3.40141    2.43535  28.4%     -   18s
     0     0    2.43670    0  421    3.40141    2.43670  28.4%     -   18s
     0     0    2.43693    0  472    3.40141    2.43693  28.4%     -   18s
     0     0    2.44044    0  391    3.40141    2.44044  28.3%     -   19s
     0     0    2.44203    0  371    3.40141    2.44203  28.2%     -   19s
     0     0    2.44263    0  419    3.40141    2.44263  28.2%     -   19s
     0     0    2.44287    0  417    3.40141    2.44287  28.2%     -   19s
     0     0    2.44615    0  400    3.40141    2.44615  28.1%     -   19s
     0     0    2.44788    0  444    3.40141    2.44788  28.0%     -   20s
     0     0    2.44812    0  418    3.40141    2.44812  28.0%     -   20s
     0     0    2.45257    0  511    3.40141    2.45257  27.9%     -   20s
     0     0    2.45305    0  430    3.40141    2.45305  27.9%     -   20s
     0     0    2.45313    0  462    3.40141    2.45313  27.9%     -   20s
     0     0    2.45467    0  448    3.40141    2.45467  27.8%     -   21s
     0     0    2.45520    0  383    3.40141    2.45520  27.8%     -   21s
     0     0    2.45534    0  439    3.40141    2.45534  27.8%     -   21s
     0     0    2.45740    0  416    3.40141    2.45740  27.8%     -   21s
     0     0    2.45740    0  415    3.40141    2.45740  27.8%     -   25s
     0     2    2.45745    0  414    3.40141    2.45745  27.8%     -   25s
    12    14    2.46588   10  301    3.40141    2.45854  27.7%   512   30s
H   27    27                       3.2005219    2.45854  23.2%   552   40s
    47    49    2.50168   37  361    3.20052    2.45854  23.2%   612   45s
H   54    54                       3.1840478    2.45854  22.8%   549   55s
    83    85    2.60793   66  232    3.18405    2.45854  22.8%   600   60s
   114   116    2.66469   88  221    3.18405    2.45854  22.8%   622   65s
   165   167    2.77273  130  194    3.18405    2.45854  22.8%   579   70s
   251   253    2.89258  205  161    3.18405    2.45854  22.8%   464   75s
H  343   337                       3.1703984    2.45854  22.5%   399   82s
   374   351    2.58600    6  341    3.17040    2.46205  22.3%   393   85s
   405   382    2.62056   33  304    3.17040    2.46205  22.3%   396   90s
H  468   443                       3.1703984    2.46205  22.3%   382  102s
H  494   458                       3.1223307    2.46205  21.1%   385  108s
   511   476    2.78546  121  415    3.12233    2.46205  21.1%   384  118s
   513   477    2.82263  114  334    3.12233    2.46205  21.1%   382  120s
   517   480    2.54641   73  438    3.12233    2.46205  21.1%   379  125s
   525   485    2.64495   58  420    3.12233    2.48272  20.5%   373  130s
   532   490    2.49921   35  409    3.12233    2.49873  20.0%   369  135s
H  533   466                       3.1141434    2.50266  19.6%   368  150s
   540   470    2.73693  109  477    3.11414    2.51169  19.3%   363  155s
   545   474    2.89258  206  533    3.11414    2.51670  19.2%   360  160s
   552   478    2.66878   92  518    3.11414    2.52274  19.0%   355  165s
   558   482    2.69969   98  442    3.11414    2.52622  18.9%   351  170s
   566   488    2.52929   16  464    3.11414    2.52929  18.8%   346  175s
   573   492    3.04084  277  555    3.11414    2.53152  18.7%   342  180s
   579   496    2.75721  117  544    3.11414    2.53316  18.7%   339  185s
   586   501    2.53447   65  584    3.11414    2.53447  18.6%   335  190s
   592   505    2.55269    2  618    3.11414    2.53663  18.5%   331  195s
   599   510    2.53941   27  536    3.11414    2.53941  18.5%   327  200s
   605   514    2.92304  221  631    3.11414    2.54111  18.4%   324  205s
   614   520    2.77183  129  560    3.11414    2.54378  18.3%   319  210s
   620   524    2.62384   86  554    3.11414    2.54488  18.3%   316  215s
   626   528    2.54597    2  555    3.11414    2.54597  18.2%   313  220s
   632   532    2.54736   35  503    3.11414    2.54736  18.2%   310  226s
   637   535    2.59934   18  648    3.11414    2.54821  18.2%   308  230s
   643   539    2.70905   90  553    3.11414    2.54969  18.1%   305  235s
   649   543    2.55063    2  596    3.11414    2.55063  18.1%   302  240s
   655   547    2.63696   51  651    3.11414    2.55151  18.1%   299  245s
   661   551    2.64828   15  535    3.11414    2.55374  18.0%   297  250s
   666   554    2.55539   16  608    3.11414    2.55539  17.9%   294  255s
   672   558    2.78533  143  606    3.11414    2.55715  17.9%   292  260s
   677   562    2.87976  186  691    3.11414    2.55817  17.9%   290  265s
   682   565    3.11414  219  605    3.11414    2.55983  17.8%   287  270s
   687   568    2.56210   51  557    3.11414    2.56210  17.7%   285  275s
   693   572    2.74767  113  600    3.11414    2.56435  17.7%   283  280s
   698   576    2.56575   16  573    3.11414    2.56575  17.6%   281  285s
   703   579    2.66406   65  439    3.11414    2.56662  17.6%   279  290s
   709   583    2.87988  188  521    3.11414    2.56757  17.6%   277  295s

Explored 715 nodes (510670 simplex iterations) in 300.00 seconds
Thread count was 1 (of 4 available processors)

Solution count 8: 3.11414 3.12233 3.1704 ... 4.60189

Time limit reached
Best objective 3.114143440395e+00, best bound 2.568040393531e+00, gap 17.5362%
